9
0 3 49 48 61 65 31 18 69
3 0 55 45 39 47 42 76 48
49 55 0 43 70 88 49 96 34
48 45 43 0 28 67 49 66 59
61 39 70 28 0 37 30 62 14
65 47 88 67 37 0 27 47 21
31 42 49 49 30 27 0 30 39
18 76 96 66 62 47 30 0 48
69 48 34 59 14 21 39 48 0
